50 1345

18 31
72 17
29 40
94 40
92 94
93 20
33 2
72 89
55 14
8 44
32 81
16 51
82 49
85 99
55 87
27 27
88 93
5 2
8 68
67 88
33 23
50 4
55 38
13 97
96 87
36 31
79 48
41 46
51 36
61 41
34 38
46 78
90 14
81 94
74 93
81 48
83 46
47 41
31 68
86 49
97 47
36 66
86 78
17 47
72 62
30 48
82 85
17 90
49 59
6 17
